NAME : Unnamed.906.tour
COMMENT : Length = 906
COMMENT : Found by LKH [Keld Helsgaun] Sat Oct 04 21:49:56 2014
TYPE : TOUR
DIMENSION : 50
TOUR_SECTION
1
2
50
3
13
23
46
24
45
37
36
49
41
39
38
43
40
42
26
19
22
12
16
17
20
4
7
6
9
10
11
21
27
35
28
29
32
18
30
14
8
33
48
47
44
31
34
25
15
5
-1
EOF
